NAME /Users/henri/Research/solvers/instances/idol-instances/robust/collection/cbp_Subramanyam_et_al_2020/CapBud_N25_10/models/uncertain_technology_matrix/
ROWS
 N  OBJ
 L  capacity
 L  c_4255
 L  c_4256
 L  c_4257
 L  c_4258
 L  c_4259
 L  c_4260
 L  c_4261
 L  c_4262
 L  c_4263
 L  c_4264
 L  c_4265
 L  c_4266
 L  c_4267
 L  c_4268
 L  c_4269
 L  c_4270
 L  c_4271
 L  c_4272
 L  c_4273
 L  c_4274
 L  c_4275
 L  c_4276
 L  c_4277
 L  c_4278
 L  c_4279
COLUMNS
    MARKER    'MARKER'                 'INTORG'
    x_0        OBJ        -3.25565
    x_0        c_4255     1
    x_0        capacity   0.65113
    x_1        OBJ        -8.74732
    x_1        c_4256     1
    x_1        capacity   1.74946
    x_2        OBJ        -5.64774
    x_2        c_4257     1
    x_2        capacity   1.12955
    x_3        OBJ        -0.545764
    x_3        c_4258     1
    x_3        capacity   0.109153
    x_4        OBJ        -6.26887
    x_4        c_4259     1
    x_4        capacity   1.25377
    x_5        OBJ        -3.96836
    x_5        c_4260     1
    x_5        capacity   0.793671
    x_6        OBJ        -6.8976
    x_6        c_4261     1
    x_6        capacity   1.37952
    x_7        OBJ        -8.39799
    x_7        c_4262     1
    x_7        capacity   1.6796
    x_8        OBJ        -7.19002
    x_8        c_4263     1
    x_8        capacity   1.438
    x_9        OBJ        -2.90527
    x_9        c_4264     1
    x_9        capacity   0.581054
    x_10       OBJ        -1.76859
    x_10       c_4265     1
    x_10       capacity   0.353718
    x_11       OBJ        -7.18759
    x_11       c_4266     1
    x_11       capacity   1.43752
    x_12       OBJ        -8.61925
    x_12       c_4267     1
    x_12       capacity   1.72385
    x_13       OBJ        -1.61698
    x_13       c_4268     1
    x_13       capacity   0.323397
    x_14       OBJ        -9.39863
    x_14       c_4269     1
    x_14       capacity   1.87973
    x_15       OBJ        -6.25987
    x_15       c_4270     1
    x_15       capacity   1.25197
    x_16       OBJ        -2.03601
    x_16       c_4271     1
    x_16       capacity   0.407203
    x_17       OBJ        -1.91731
    x_17       c_4272     1
    x_17       capacity   0.383462
    x_18       OBJ        -6.22286
    x_18       c_4273     1
    x_18       capacity   1.24457
    x_19       OBJ        -1.64098
    x_19       c_4274     1
    x_19       capacity   0.328196
    x_20       OBJ        -7.99273
    x_20       c_4275     1
    x_20       capacity   1.59855
    x_21       OBJ        -6.86823
    x_21       c_4276     1
    x_21       capacity   1.37365
    x_22       OBJ        -3.35492
    x_22       c_4277     1
    x_22       capacity   0.670985
    x_23       OBJ        -4.33072
    x_23       c_4278     1
    x_23       capacity   0.866144
    x_24       OBJ        -2.34162
    x_24       c_4279     1
    x_24       capacity   0.468324
    y_0        OBJ        -2.60452
    y_0        c_4255     1
    y_0        capacity   0.65113
    y_1        OBJ        -6.99786
    y_1        c_4256     1
    y_1        capacity   1.74946
    y_2        OBJ        -4.51819
    y_2        c_4257     1
    y_2        capacity   1.12955
    y_3        OBJ        -0.436611
    y_3        c_4258     1
    y_3        capacity   0.109153
    y_4        OBJ        -5.0151
    y_4        c_4259     1
    y_4        capacity   1.25377
    y_5        OBJ        -3.17468
    y_5        c_4260     1
    y_5        capacity   0.793671
    y_6        OBJ        -5.51808
    y_6        c_4261     1
    y_6        capacity   1.37952
    y_7        OBJ        -6.7184
    y_7        c_4262     1
    y_7        capacity   1.6796
    y_8        OBJ        -5.75201
    y_8        c_4263     1
    y_8        capacity   1.438
    y_9        OBJ        -2.32422
    y_9        c_4264     1
    y_9        capacity   0.581054
    y_10       OBJ        -1.41487
    y_10       c_4265     1
    y_10       capacity   0.353718
    y_11       OBJ        -5.75007
    y_11       c_4266     1
    y_11       capacity   1.43752
    y_12       OBJ        -6.8954
    y_12       c_4267     1
    y_12       capacity   1.72385
    y_13       OBJ        -1.29359
    y_13       c_4268     1
    y_13       capacity   0.323397
    y_14       OBJ        -7.5189
    y_14       c_4269     1
    y_14       capacity   1.87973
    y_15       OBJ        -5.00789
    y_15       c_4270     1
    y_15       capacity   1.25197
    y_16       OBJ        -1.62881
    y_16       c_4271     1
    y_16       capacity   0.407203
    y_17       OBJ        -1.53385
    y_17       c_4272     1
    y_17       capacity   0.383462
    y_18       OBJ        -4.97829
    y_18       c_4273     1
    y_18       capacity   1.24457
    y_19       OBJ        -1.31278
    y_19       c_4274     1
    y_19       capacity   0.328196
    y_20       OBJ        -6.39418
    y_20       c_4275     1
    y_20       capacity   1.59855
    y_21       OBJ        -5.49458
    y_21       c_4276     1
    y_21       capacity   1.37365
    y_22       OBJ        -2.68394
    y_22       c_4277     1
    y_22       capacity   0.670985
    y_23       OBJ        -3.46458
    y_23       c_4278     1
    y_23       capacity   0.866144
    y_24       OBJ        -1.8733
    y_24       c_4279     1
    y_24       capacity   0.468324
    MARKER    'MARKER'                 'INTEND'
RHS
    RHS       capacity   62.6904
    RHS       c_4255     1
    RHS       c_4256     1
    RHS       c_4257     1
    RHS       c_4258     1
    RHS       c_4259     1
    RHS       c_4260     1
    RHS       c_4261     1
    RHS       c_4262     1
    RHS       c_4263     1
    RHS       c_4264     1
    RHS       c_4265     1
    RHS       c_4266     1
    RHS       c_4267     1
    RHS       c_4268     1
    RHS       c_4269     1
    RHS       c_4270     1
    RHS       c_4271     1
    RHS       c_4272     1
    RHS       c_4273     1
    RHS       c_4274     1
    RHS       c_4275     1
    RHS       c_4276     1
    RHS       c_4277     1
    RHS       c_4278     1
    RHS       c_4279     1
BOUNDS
 LI BND       x_0        0
 UI BND       x_0        1
 LI BND       x_1        0
 UI BND       x_1        1
 LI BND       x_2        0
 UI BND       x_2        1
 LI BND       x_3        0
 UI BND       x_3        1
 LI BND       x_4        0
 UI BND       x_4        1
 LI BND       x_5        0
 UI BND       x_5        1
 LI BND       x_6        0
 UI BND       x_6        1
 LI BND       x_7        0
 UI BND       x_7        1
 LI BND       x_8        0
 UI BND       x_8        1
 LI BND       x_9        0
 UI BND       x_9        1
 LI BND       x_10       0
 UI BND       x_10       1
 LI BND       x_11       0
 UI BND       x_11       1
 LI BND       x_12       0
 UI BND       x_12       1
 LI BND       x_13       0
 UI BND       x_13       1
 LI BND       x_14       0
 UI BND       x_14       1
 LI BND       x_15       0
 UI BND       x_15       1
 LI BND       x_16       0
 UI BND       x_16       1
 LI BND       x_17       0
 UI BND       x_17       1
 LI BND       x_18       0
 UI BND       x_18       1
 LI BND       x_19       0
 UI BND       x_19       1
 LI BND       x_20       0
 UI BND       x_20       1
 LI BND       x_21       0
 UI BND       x_21       1
 LI BND       x_22       0
 UI BND       x_22       1
 LI BND       x_23       0
 UI BND       x_23       1
 LI BND       x_24       0
 UI BND       x_24       1
 LI BND       y_0        0
 UI BND       y_0        1
 LI BND       y_1        0
 UI BND       y_1        1
 LI BND       y_2        0
 UI BND       y_2        1
 LI BND       y_3        0
 UI BND       y_3        1
 LI BND       y_4        0
 UI BND       y_4        1
 LI BND       y_5        0
 UI BND       y_5        1
 LI BND       y_6        0
 UI BND       y_6        1
 LI BND       y_7        0
 UI BND       y_7        1
 LI BND       y_8        0
 UI BND       y_8        1
 LI BND       y_9        0
 UI BND       y_9        1
 LI BND       y_10       0
 UI BND       y_10       1
 LI BND       y_11       0
 UI BND       y_11       1
 LI BND       y_12       0
 UI BND       y_12       1
 LI BND       y_13       0
 UI BND       y_13       1
 LI BND       y_14       0
 UI BND       y_14       1
 LI BND       y_15       0
 UI BND       y_15       1
 LI BND       y_16       0
 UI BND       y_16       1
 LI BND       y_17       0
 UI BND       y_17       1
 LI BND       y_18       0
 UI BND       y_18       1
 LI BND       y_19       0
 UI BND       y_19       1
 LI BND       y_20       0
 UI BND       y_20       1
 LI BND       y_21       0
 UI BND       y_21       1
 LI BND       y_22       0
 UI BND       y_22       1
 LI BND       y_23       0
 UI BND       y_23       1
 LI BND       y_24       0
 UI BND       y_24       1
ENDATA
